<?xml version = "1.0" encoding="UTF-8" standalone="yes"?>
<CPLEXSolution version="1.2">
 <header
   problemName="IloCplex"
   solutionName="p0"
   solutionIndex="-1"
   objectiveValue="0"
   solutionTypeValue="3"
   solutionTypeString="primal"
   solutionStatusValue="127"
   solutionStatusString="integer feasible solution"
   solutionMethodString="mip"
   primalFeasible="0"
   dualFeasible="0"
   writeLevel="3"/>
 <quality
   epInt="1.0000000000000001e-05"
   epRHS="9.9999999999999995e-07"
   maxIntInfeas="0"
   maxPrimalInfeas="0"
   maxX="1"
   maxSlack="1"/>
 <variables>
  <variable name="x0_39" index="149" value="1"/>
  <variable name="x1_91" index="301" value="1"/>
  <variable name="x2_98" index="408" value="1"/>
  <variable name="x3_71" index="481" value="1"/>
  <variable name="x4_92" index="602" value="1"/>
  <variable name="x5_87" index="697" value="1"/>
  <variable name="x6_25" index="735" value="1"/>
  <variable name="x7_18" index="828" value="1"/>
  <variable name="x8_20" index="930" value="1"/>
  <variable name="x9_76" index="1086" value="1"/>
  <variable name="x10_72" index="1182" value="1"/>
  <variable name="x11_43" index="1253" value="1"/>
  <variable name="x12_55" index="1365" value="1"/>
  <variable name="x13_35" index="1445" value="1"/>
  <variable name="x14_10" index="1520" value="1"/>
  <variable name="x15_93" index="1703" value="1"/>
  <variable name="x16_58" index="1768" value="1"/>
  <variable name="x17_49" index="1859" value="1"/>
  <variable name="x18_11" index="1921" value="1"/>
  <variable name="x19_57" index="2067" value="1"/>
  <variable name="x20_70" index="2180" value="1"/>
  <variable name="x21_9" index="2219" value="1"/>
  <variable name="x22_62" index="2372" value="1"/>
  <variable name="x23_60" index="2470" value="1"/>
  <variable name="x24_19" index="2529" value="1"/>
  <variable name="x25_83" index="2693" value="1"/>
  <variable name="x26_36" index="2746" value="1"/>
  <variable name="x27_13" index="2823" value="1"/>
  <variable name="x28_47" index="2957" value="1"/>
  <variable name="x29_84" index="3094" value="1"/>
  <variable name="x30_31" index="3141" value="1"/>
  <variable name="x31_29" index="3239" value="1"/>
  <variable name="x32_67" index="3377" value="1"/>
  <variable name="x33_46" index="3456" value="1"/>
  <variable name="x34_7" index="3517" value="1"/>
  <variable name="x35_59" index="3669" value="1"/>
  <variable name="x36_73" index="3783" value="1"/>
  <variable name="x37_95" index="3905" value="1"/>
  <variable name="x38_66" index="3976" value="1"/>
  <variable name="x39_33" index="4043" value="1"/>
  <variable name="x40_26" index="4136" value="1"/>
  <variable name="x41_63" index="4273" value="1"/>
  <variable name="x42_5" index="4315" value="1"/>
  <variable name="x43_21" index="4431" value="1"/>
  <variable name="x44_3" index="4513" value="1"/>
  <variable name="x45_56" index="4666" value="1"/>
  <variable name="x46_22" index="4732" value="1"/>
  <variable name="x47_79" index="4889" value="1"/>
  <variable name="x48_85" index="4995" value="1"/>
  <variable name="x49_61" index="5071" value="1"/>
  <variable name="x50_38" index="5148" value="1"/>
  <variable name="x51_69" index="5279" value="1"/>
  <variable name="x52_37" index="5347" value="1"/>
  <variable name="x53_41" index="5451" value="1"/>
  <variable name="x54_1" index="5511" value="1"/>
  <variable name="x55_45" index="5655" value="1"/>
  <variable name="x56_48" index="5758" value="1"/>
  <variable name="x57_54" index="5864" value="1"/>
  <variable name="x58_16" index="5926" value="1"/>
  <variable name="x59_23" index="6033" value="1"/>
  <variable name="x60_30" index="6140" value="1"/>
  <variable name="x61_14" index="6224" value="1"/>
  <variable name="x62_90" index="6400" value="1"/>
  <variable name="x63_24" index="6434" value="1"/>
  <variable name="x64_81" index="6591" value="1"/>
  <variable name="x65_99" index="6709" value="1"/>
  <variable name="x66_34" index="6744" value="1"/>
  <variable name="x67_89" index="6899" value="1"/>
  <variable name="x68_12" index="6922" value="1"/>
  <variable name="x69_77" index="7087" value="1"/>
  <variable name="x70_75" index="7185" value="1"/>
  <variable name="x71_82" index="7292" value="1"/>
  <variable name="x72_86" index="7396" value="1"/>
  <variable name="x73_68" index="7478" value="1"/>
  <variable name="x74_15" index="7525" value="1"/>
  <variable name="x75_27" index="7637" value="1"/>
  <variable name="x76_65" index="7775" value="1"/>
  <variable name="x77_88" index="7898" value="1"/>
  <variable name="x78_28" index="7938" value="1"/>
  <variable name="x79_44" index="8054" value="1"/>
  <variable name="x80_8" index="8118" value="1"/>
  <variable name="x81_2" index="8212" value="1"/>
  <variable name="x82_53" index="8363" value="1"/>
  <variable name="x83_97" index="8507" value="1"/>
  <variable name="x84_42" index="8552" value="1"/>
  <variable name="x85_6" index="8616" value="1"/>
  <variable name="x86_74" index="8784" value="1"/>
  <variable name="x87_40" index="8850" value="1"/>
  <variable name="x88_80" index="8990" value="1"/>
  <variable name="x89_78" index="9088" value="1"/>
  <variable name="x90_50" index="9160" value="1"/>
  <variable name="x91_52" index="9262" value="1"/>
  <variable name="x92_32" index="9342" value="1"/>
  <variable name="x93_96" index="9506" value="1"/>
  <variable name="x94_51" index="9561" value="1"/>
  <variable name="x95_17" index="9627" value="1"/>
  <variable name="x96_0" index="9710" value="1"/>
  <variable name="x97_64" index="9874" value="1"/>
  <variable name="x98_4" index="9914" value="1"/>
  <variable name="x99_94" index="10104" value="1"/>
  <variable name="u1" index="10111" value="1"/>
  <variable name="u2" index="10112" value="1"/>
  <variable name="u3" index="10113" value="1"/>
  <variable name="u4" index="10114" value="1"/>
  <variable name="u9" index="10119" value="1"/>
 </variables>
</CPLEXSolution>
